(set-logic QF_S)
(set-option :strings-exp true)
(set-option :produce-models true)
(declare-fun sigmaStar_0 () String)
(declare-fun sigmaStar_1 () String)
(declare-fun sigmaStar_2 () String)
(declare-fun x_14 () String)
(declare-fun literal_8 () String)
(declare-fun literal_10 () String)
(declare-fun literal_9 () String)
(declare-fun literal_11 () String)
(assert (= literal_8 ""))
(assert (= literal_10 ""))
(assert (= literal_9 ""))
(assert (= literal_11 ""))
(assert (or (= x_14 literal_8) (= x_14 literal_10) (= x_14 literal_9) (= x_14 literal_11)))
(assert (str.in.re x_14 (re.++ (re.* re.allchar) (re.++ (str.to.re "\x5c\x3c\x53\x43\x52\x49\x50\x54") (re.* re.allchar)))))
(check-sat)
(get-model)
